# Minimal fixed-shape MD micro-benchmark for pair_style mff/torch on CUDA.
# No initial velocities: with the dummy ICTD core (forces ~0) atoms stay put, so the
# neighbor list / edge count is constant -> the CUDA-graph path replays every step
# (best-case, launch-bound regime). __CORE_PT__ / __NSTEPS__ are substituted by run_md.sh.
units metal
atom_style atomic
boundary p p p

region box block 0 30 0 30 0 30
create_box 2 box
create_atoms 1 random 150 12345 box
create_atoms 2 random 100 12346 box
mass 1 1.008
mass 2 15.999

neighbor 1.0 bin
neigh_modify every 1 delay 0 check yes

pair_style mff/torch 5.0 cuda
pair_coeff * * __CORE_PT__ H O

fix 1 all nve
thermo 20
thermo_style custom step temp pe etotal
run __NSTEPS__
